nodes = 16;
edges = 36;
starts = [1, 1, 2, 2, 3, 3, 3, 4, 4, 5, 5, 6, 6, 7, 7, 7, 8, 8, 8, 9, 9, 9, 10, 10, 10, 11, 12, 12, 13, 13, 14, 14, 14, 15, 15, 16];
ends = [2, 6, 1, 3, 2, 4, 8, 3, 5, 4, 10, 1, 7, 6, 8, 12, 3, 7, 9, 8, 10, 14, 5, 9, 11, 10, 7, 13, 12, 14, 9, 13, 15, 14, 16, 15];
weights = [14, 7, 14, 12, 12, 6, 6, 6, 14, 14, 18, 7, 12, 12, 18, 10, 6, 18, 10, 10, 18, 16, 18, 18, 10, 10, 10, 2, 2, 15, 16, 15, 7, 7, 15, 15];
start = 1;
end= 16;
tasks = 3;
p = [0, 0, 1, 0, 0, 1, 0, 0, 0, 1, 0, 0, 0, 0, 0, 0];
